benchmarks_CP/INST_49x49/40/inst49x49_40_6.dzn
S=7;
start=[|
-1,	34,	-1,	19,	-1,	-1,	17,	-1,	-1,	31,	-1,	-1,	-1,	-1,	13,	-1,	-1,	-1,	-1,	21,	-1,	36,	-1,	-1,	44,	-1,	-1,	-1,	33,	41,	-1,	11,	-1,	-1,	-1,	-1,	9,	39,	-1,	-1,	-1,	40,	-1,	43,	-1,	-1,	-1,	27,	-1|
42,	-1,	21,	43,	-1,	-1,	38,	19,	-1,	-1,	-1,	-1,	-1,	32,	35,	-1,	27,	-1,	40,	-1,	-1,	37,	-1,	4,	-1,	-1,	9,	46,	24,	13,	-1,	-1,	47,	-1,	44,	-1,	-1,	16,	41,	25,	-1,	8,	22,	-1,	31,	-1,	-1,	12,	-1|
-1,	-1,	8,	-1,	-1,	-1,	-1,	28,	11,	21,	-1,	-1,	17,	41,	-1,	34,	10,	6,	-1,	7,	4,	-1,	-1,	-1,	39,	-1,	35,	-1,	36,	-1,	1,	-1,	-1,	45,	-1,	-1,	-1,	-1,	-1,	-1,	-1,	23,	-1,	-1,	-1,	24,	48,	16,	-1|
30,	-1,	25,	-1,	18,	-1,	-1,	29,	-1,	10,	-1,	-1,	20,	34,	36,	41,	43,	-1,	-1,	-1,	-1,	7,	23,	-1,	-1,	-1,	-1,	11,	-1,	12,	6,	35,	-1,	-1,	-1,	31,	-1,	-1,	-1,	17,	-1,	-1,	-1,	-1,	-1,	21,	-1,	-1,	-1|
35,	16,	-1,	-1,	-1,	-1,	6,	-1,	-1,	39,	-1,	27,	26,	42,	47,	-1,	-1,	-1,	-1,	-1,	-1,	-1,	25,	-1,	-1,	-1,	45,	38,	14,	23,	-1,	20,	-1,	10,	-1,	-1,	4,	13,	-1,	-1,	-1,	-1,	-1,	-1,	33,	3,	-1,	17,	-1|
36,	-1,	-1,	23,	48,	-1,	-1,	-1,	-1,	-1,	-1,	12,	-1,	35,	-1,	39,	25,	-1,	-1,	-1,	20,	-1,	14,	8,	5,	41,	-1,	31,	-1,	-1,	21,	-1,	-1,	-1,	-1,	43,	26,	-1,	-1,	-1,	10,	-1,	28,	-1,	-1,	-1,	-1,	18,	-1|
49,	41,	-1,	7,	40,	-1,	-1,	24,	3,	-1,	43,	37,	6,	-1,	16,	11,	-1,	-1,	-1,	-1,	-1,	-1,	-1,	2,	-1,	-1,	13,	-1,	-1,	-1,	38,	-1,	25,	-1,	8,	1,	21,	-1,	-1,	-1,	-1,	-1,	-1,	44,	-1,	-1,	-1,	-1,	32|
31,	-1,	-1,	-1,	-1,	41,	11,	-1,	-1,	-1,	-1,	-1,	29,	-1,	-1,	16,	-1,	-1,	42,	38,	-1,	22,	21,	-1,	45,	-1,	-1,	-1,	30,	-1,	-1,	40,	-1,	47,	-1,	-1,	18,	-1,	-1,	-1,	-1,	-1,	-1,	49,	24,	-1,	-1,	8,	7|
-1,	-1,	-1,	-1,	34,	12,	-1,	-1,	-1,	2,	-1,	45,	7,	36,	-1,	-1,	-1,	15,	47,	-1,	24,	-1,	8,	-1,	-1,	44,	25,	-1,	-1,	-1,	20,	13,	-1,	16,	26,	39,	-1,	-1,	-1,	-1,	-1,	49,	-1,	-1,	-1,	29,	-1,	-1,	22|
-1,	-1,	-1,	47,	24,	26,	27,	21,	-1,	-1,	5,	4,	-1,	-1,	45,	-1,	-1,	-1,	-1,	34,	9,	-1,	2,	-1,	-1,	12,	-1,	-1,	-1,	-1,	36,	28,	-1,	-1,	-1,	16,	-1,	-1,	-1,	-1,	-1,	-1,	46,	-1,	30,	13,	33,	-1,	-1|
-1,	-1,	-1,	8,	-1,	-1,	7,	9,	10,	-1,	-1,	-1,	-1,	-1,	-1,	-1,	49,	-1,	-1,	-1,	43,	-1,	-1,	-1,	-1,	-1,	6,	16,	-1,	21,	-1,	3,	45,	39,	22,	-1,	-1,	-1,	-1,	-1,	-1,	-1,	-1,	26,	-1,	40,	-1,	37,	20|
-1,	-1,	-1,	-1,	-1,	-1,	40,	-1,	-1,	-1,	6,	-1,	-1,	-1,	-1,	-1,	-1,	5,	37,	-1,	1,	-1,	-1,	-1,	-1,	10,	41,	43,	-1,	17,	-1,	-1,	-1,	-1,	-1,	3,	-1,	36,	-1,	21,	22,	-1,	48,	-1,	-1,	14,	32,	47,	-1|
9,	46,	1,	-1,	43,	-1,	5,	-1,	-1,	-1,	34,	-1,	-1,	-1,	23,	-1,	-1,	-1,	-1,	12,	-1,	-1,	-1,	37,	-1,	-1,	-1,	-1,	25,	-1,	-1,	-1,	-1,	-1,	14,	-1,	24,	-1,	40,	-1,	-1,	-1,	-1,	-1,	18,	-1,	16,	19,	-1|
25,	-1,	-1,	-1,	15,	6,	16,	12,	-1,	44,	-1,	-1,	-1,	-1,	-1,	-1,	-1,	10,	-1,	27,	48,	-1,	-1,	-1,	-1,	49,	42,	-1,	-1,	34,	-1,	-1,	35,	-1,	-1,	-1,	8,	23,	-1,	-1,	-1,	-1,	21,	-1,	-1,	-1,	-1,	38,	4|
-1,	-1,	13,	25,	-1,	11,	-1,	32,	-1,	-1,	-1,	-1,	-1,	9,	-1,	6,	-1,	-1,	26,	-1,	14,	33,	-1,	44,	3,	38,	-1,	28,	-1,	47,	49,	34,	1,	-1,	-1,	41,	20,	21,	19,	-1,	7,	22,	-1,	42,	-1,	45,	-1,	4,	16|
4,	-1,	-1,	14,	-1,	-1,	1,	-1,	-1,	17,	-1,	35,	42,	-1,	40,	-1,	8,	34,	29,	-1,	-1,	-1,	30,	-1,	6,	13,	-1,	-1,	-1,	-1,	-1,	-1,	43,	-1,	-1,	-1,	-1,	47,	33,	23,	-1,	-1,	-1,	37,	-1,	46,	-1,	-1,	-1|
-1,	-1,	19,	39,	-1,	-1,	-1,	-1,	4,	-1,	-1,	-1,	-1,	33,	41,	-1,	-1,	-1,	-1,	-1,	-1,	-1,	-1,	21,	-1,	-1,	-1,	42,	10,	-1,	44,	6,	-1,	31,	-1,	45,	-1,	40,	-1,	38,	30,	-1,	-1,	-1,	-1,	20,	47,	-1,	18|
-1,	-1,	-1,	-1,	-1,	-1,	-1,	-1,	-1,	-1,	-1,	-1,	-1,	-1,	-1,	35,	-1,	-1,	-1,	-1,	22,	-1,	16,	7,	-1,	-1,	5,	-1,	21,	-1,	9,	-1,	15,	25,	24,	-1,	-1,	-1,	-1,	-1,	-1,	-1,	-1,	32,	-1,	19,	10,	-1,	26|
-1,	-1,	-1,	-1,	26,	-1,	-1,	-1,	-1,	43,	-1,	-1,	-1,	1,	28,	-1,	-1,	-1,	33,	-1,	-1,	-1,	-1,	-1,	-1,	-1,	49,	-1,	-1,	20,	46,	19,	4,	-1,	23,	35,	-1,	-1,	-1,	10,	-1,	-1,	13,	14,	-1,	-1,	-1,	-1,	-1|
-1,	-1,	33,	40,	49,	16,	10,	-1,	-1,	-1,	25,	-1,	-1,	38,	-1,	48,	-1,	44,	-1,	19,	-1,	32,	18,	-1,	26,	-1,	29,	35,	22,	-1,	-1,	14,	27,	-1,	-1,	-1,	-1,	-1,	-1,	-1,	-1,	-1,	12,	30,	-1,	36,	-1,	-1,	-1|
20,	47,	-1,	-1,	41,	38,	-1,	-1,	-1,	-1,	-1,	-1,	-1,	-1,	-1,	5,	45,	-1,	-1,	-1,	-1,	48,	19,	10,	24,	-1,	-1,	17,	-1,	36,	-1,	12,	-1,	-1,	42,	25,	15,	-1,	18,	-1,	-1,	-1,	7,	28,	-1,	1,	-1,	43,	-1|
5,	44,	-1,	33,	-1,	36,	42,	40,	-1,	-1,	38,	10,	-1,	-1,	-1,	-1,	23,	7,	-1,	22,	-1,	30,	-1,	-1,	-1,	-1,	-1,	-1,	-1,	43,	32,	-1,	-1,	-1,	13,	11,	-1,	-1,	-1,	-1,	9,	-1,	-1,	-1,	-1,	15,	3,	-1,	-1|
29,	2,	-1,	15,	-1,	-1,	39,	-1,	31,	42,	-1,	44,	-1,	12,	-1,	-1,	-1,	-1,	45,	28,	-1,	-1,	13,	14,	46,	-1,	26,	22,	-1,	-1,	35,	21,	36,	-1,	-1,	10,	-1,	-1,	-1,	-1,	47,	34,	38,	-1,	-1,	9,	18,	20,	6|
-1,	-1,	-1,	30,	19,	32,	25,	-1,	29,	15,	-1,	-1,	43,	-1,	-1,	37,	-1,	-1,	48,	-1,	2,	-1,	-1,	-1,	-1,	23,	20,	6,	4,	-1,	-1,	42,	10,	44,	-1,	-1,	-1,	-1,	-1,	14,	-1,	31,	8,	-1,	-1,	-1,	-1,	-1,	-1|
-1,	-1,	-1,	-1,	-1,	49,	43,	-1,	-1,	-1,	-1,	23,	22,	8,	-1,	-1,	-1,	-1,	30,	1,	-1,	27,	-1,	47,	11,	-1,	44,	-1,	-1,	6,	41,	31,	-1,	-1,	-1,	37,	-1,	-1,	-1,	-1,	-1,	-1,	-1,	-1,	-1,	-1,	24,	48,	19|
37,	-1,	-1,	6,	47,	23,	9,	14,	-1,	-1,	-1,	-1,	-1,	18,	-1,	10,	-1,	-1,	8,	-1,	3,	12,	33,	49,	-1,	-1,	17,	24,	-1,	-1,	-1,	-1,	-1,	22,	48,	-1,	-1,	2,	30,	5,	-1,	43,	-1,	-1,	41,	-1,	-1,	-1,	-1|
17,	-1,	-1,	-1,	31,	34,	14,	-1,	2,	35,	-1,	24,	39,	-1,	6,	26,	-1,	-1,	36,	-1,	-1,	-1,	38,	9,	-1,	-1,	-1,	37,	5,	-1,	-1,	-1,	20,	12,	46,	8,	27,	-1,	-1,	13,	-1,	-1,	30,	4,	-1,	-1,	22,	-1,	49|
-1,	-1,	-1,	20,	4,	-1,	-1,	-1,	-1,	-1,	26,	21,	-1,	-1,	-1,	-1,	-1,	-1,	-1,	-1,	-1,	8,	-1,	-1,	-1,	-1,	31,	-1,	23,	-1,	-1,	-1,	-1,	18,	2,	-1,	38,	-1,	-1,	-1,	-1,	-1,	35,	13,	46,	25,	37,	11,	10|
-1,	5,	39,	-1,	27,	-1,	-1,	13,	-1,	24,	-1,	-1,	-1,	-1,	10,	20,	1,	18,	-1,	-1,	35,	43,	-1,	-1,	-1,	37,	28,	41,	-1,	-1,	-1,	-1,	6,	19,	-1,	-1,	17,	-1,	-1,	-1,	11,	-1,	32,	-1,	-1,	-1,	-1,	-1,	38|
-1,	15,	37,	-1,	-1,	-1,	-1,	39,	-1,	9,	-1,	-1,	-1,	-1,	17,	-1,	-1,	2,	-1,	45,	38,	-1,	-1,	42,	19,	-1,	10,	23,	49,	24,	31,	-1,	-1,	4,	-1,	-1,	-1,	-1,	-1,	-1,	-1,	30,	16,	20,	-1,	47,	-1,	6,	-1|
-1,	-1,	-1,	49,	12,	30,	35,	3,	-1,	29,	19,	-1,	1,	15,	-1,	-1,	-1,	-1,	-1,	-1,	-1,	-1,	40,	-1,	-1,	-1,	36,	-1,	-1,	-1,	2,	23,	-1,	14,	27,	-1,	47,	-1,	13,	18,	-1,	-1,	-1,	45,	-1,	-1,	4,	10,	-1|
34,	6,	-1,	31,	42,	17,	41,	-1,	-1,	38,	-1,	25,	-1,	2,	3,	47,	-1,	26,	-1,	36,	-1,	-1,	-1,	45,	18,	11,	-1,	-1,	-1,	46,	-1,	-1,	8,	1,	-1,	23,	-1,	-1,	-1,	22,	-1,	14,	37,	-1,	-1,	-1,	43,	-1,	-1|
40,	10,	-1,	22,	-1,	24,	45,	-1,	-1,	46,	42,	43,	-1,	27,	33,	-1,	12,	19,	11,	-1,	-1,	-1,	29,	-1,	20,	9,	-1,	8,	-1,	35,	-1,	47,	-1,	-1,	-1,	-1,	-1,	-1,	32,	-1,	-1,	39,	-1,	1,	-1,	31,	-1,	13,	-1|
-1,	-1,	-1,	-1,	-1,	-1,	19,	-1,	36,	20,	-1,	33,	32,	6,	-1,	49,	29,	24,	-1,	-1,	8,	-1,	-1,	-1,	-1,	-1,	38,	-1,	-1,	-1,	-1,	-1,	-1,	43,	25,	-1,	-1,	35,	46,	-1,	-1,	3,	-1,	-1,	14,	30,	9,	-1,	-1|
-1,	-1,	-1,	-1,	-1,	-1,	-1,	-1,	-1,	16,	35,	-1,	-1,	26,	-1,	-1,	-1,	-1,	-1,	-1,	-1,	-1,	-1,	6,	13,	-1,	-1,	-1,	11,	48,	-1,	-1,	-1,	-1,	-1,	38,	10,	-1,	-1,	28,	2,	42,	17,	-1,	-1,	-1,	-1,	24,	-1|
41,	37,	-1,	-1,	33,	-1,	49,	31,	23,	26,	-1,	18,	47,	46,	24,	25,	11,	16,	-1,	-1,	40,	-1,	-1,	-1,	15,	-1,	-1,	39,	-1,	-1,	48,	-1,	-1,	-1,	-1,	-1,	-1,	-1,	-1,	30,	34,	-1,	-1,	-1,	-1,	-1,	-1,	9,	-1|
24,	-1,	23,	-1,	6,	28,	-1,	-1,	-1,	5,	-1,	-1,	-1,	43,	-1,	9,	35,	-1,	14,	42,	-1,	-1,	-1,	13,	17,	-1,	33,	-1,	1,	44,	-1,	-1,	-1,	-1,	47,	18,	32,	41,	3,	-1,	-1,	48,	-1,	15,	10,	12,	-1,	-1,	34|
18,	31,	34,	27,	-1,	22,	-1,	-1,	33,	45,	-1,	19,	14,	13,	48,	-1,	20,	-1,	41,	-1,	-1,	-1,	-1,	-1,	8,	24,	-1,	-1,	16,	-1,	-1,	-1,	3,	-1,	40,	-1,	-1,	11,	17,	-1,	-1,	-1,	-1,	-1,	2,	-1,	30,	36,	-1|
-1,	-1,	-1,	-1,	46,	40,	-1,	-1,	-1,	22,	-1,	-1,	-1,	49,	-1,	33,	-1,	-1,	-1,	17,	30,	45,	-1,	-1,	-1,	-1,	-1,	2,	-1,	-1,	-1,	-1,	-1,	11,	-1,	-1,	-1,	-1,	-1,	4,	35,	-1,	-1,	18,	19,	-1,	-1,	-1,	-1|
-1,	-1,	-1,	9,	-1,	7,	-1,	-1,	-1,	34,	-1,	8,	-1,	-1,	43,	-1,	-1,	23,	49,	-1,	-1,	-1,	-1,	12,	-1,	5,	48,	32,	-1,	-1,	-1,	-1,	-1,	42,	-1,	40,	-1,	6,	28,	-1,	19,	38,	-1,	21,	-1,	-1,	35,	26,	-1|
-1,	35,	43,	-1,	-1,	25,	-1,	41,	-1,	40,	-1,	-1,	11,	-1,	32,	-1,	-1,	28,	3,	-1,	19,	-1,	-1,	22,	-1,	-1,	-1,	-1,	-1,	31,	13,	18,	-1,	-1,	20,	-1,	-1,	-1,	-1,	-1,	8,	10,	45,	-1,	-1,	48,	-1,	49,	33|
-1,	1,	-1,	5,	30,	19,	-1,	-1,	-1,	-1,	-1,	-1,	-1,	-1,	-1,	-1,	-1,	27,	-1,	-1,	39,	-1,	-1,	-1,	-1,	-1,	-1,	10,	-1,	-1,	43,	36,	34,	-1,	45,	-1,	-1,	-1,	-1,	-1,	-1,	-1,	20,	-1,	-1,	-1,	17,	-1,	-1|
-1,	23,	48,	-1,	-1,	-1,	46,	-1,	-1,	-1,	33,	-1,	-1,	-1,	29,	13,	-1,	-1,	28,	-1,	-1,	-1,	-1,	-1,	41,	16,	-1,	49,	17,	-1,	-1,	-1,	-1,	-1,	-1,	47,	-1,	-1,	42,	-1,	-1,	-1,	10,	-1,	25,	-1,	-1,	-1,	-1|
-1,	3,	-1,	-1,	-1,	-1,	20,	-1,	-1,	-1,	-1,	-1,	-1,	-1,	2,	-1,	-1,	-1,	32,	10,	16,	-1,	-1,	-1,	14,	-1,	21,	-1,	-1,	-1,	-1,	-1,	-1,	6,	-1,	-1,	-1,	-1,	43,	8,	-1,	1,	-1,	48,	-1,	33,	49,	34,	-1|
-1,	-1,	-1,	-1,	25,	42,	21,	4,	-1,	49,	-1,	20,	-1,	-1,	7,	-1,	-1,	45,	-1,	40,	-1,	-1,	32,	29,	-1,	-1,	-1,	-1,	43,	-1,	-1,	2,	19,	41,	5,	-1,	-1,	-1,	-1,	44,	46,	-1,	-1,	24,	-1,	-1,	-1,	-1,	-1|
-1,	39,	49,	-1,	-1,	-1,	-1,	44,	-1,	8,	-1,	14,	19,	-1,	-1,	27,	-1,	-1,	31,	-1,	-1,	-1,	-1,	28,	-1,	35,	-1,	-1,	12,	-1,	25,	24,	-1,	-1,	18,	-1,	-1,	-1,	-1,	-1,	40,	36,	43,	-1,	-1,	-1,	20,	-1,	-1|
-1,	30,	41,	29,	32,	-1,	22,	-1,	-1,	48,	27,	-1,	5,	-1,	-1,	-1,	15,	-1,	-1,	-1,	-1,	25,	4,	11,	34,	6,	8,	44,	20,	-1,	-1,	46,	33,	-1,	-1,	-1,	-1,	-1,	31,	-1,	-1,	21,	9,	40,	36,	-1,	1,	45,	-1|
-1,	-1,	12,	-1,	44,	-1,	-1,	-1,	-1,	-1,	-1,	26,	-1,	-1,	-1,	1,	-1,	25,	-1,	-1,	21,	-1,	36,	-1,	-1,	-1,	-1,	45,	47,	32,	-1,	49,	9,	-1,	10,	19,	34,	-1,	-1,	-1,	29,	41,	-1,	-1,	3,	6,	5,	14,	17|
-1,	24,	-1,	-1,	-1,	-1,	26,	43,	28,	25,	-1,	-1,	-1,	-1,	-1,	23,	-1,	-1,	-1,	-1,	49,	-1,	17,	33,	-1,	-1,	12,	-1,	31,	-1,	-1,	44,	-1,	21,	34,	-1,	37,	-1,	-1,	-1,	20,	-1,	-1,	-1,	-1,	4,	46,	-1,	39|];
