benchmarks_LEQ/INST_49x49/40/inst49x49_40_6.txt
7
1
-1	34	-1	-1	-1	-1	17	-1	-1	-1	23	-1	-1	7	13	-1	-1	-1	46	21	-1	-1	-1	-1	-1	26	-1	29	-1	-1	-1	-1	49	-1	-1	30	-1	39	-1	-1	6	-1	14	43	35	8	-1	27	-1
-1	11	21	43	14	15	-1	-1	-1	33	-1	36	2	32	-1	-1	27	-1	-1	-1	29	-1	-1	4	49	-1	-1	46	-1	-1	30	-1	-1	34	-1	20	28	-1	41	-1	-1	8	-1	6	-1	-1	-1	12	-1
-1	32	-1	-1	20	-1	13	28	-1	-1	46	-1	-1	41	-1	-1	-1	6	5	-1	-1	-1	-1	18	-1	-1	-1	-1	-1	-1	-1	29	-1	45	-1	-1	-1	14	-1	-1	-1	23	-1	-1	-1	-1	-1	16	30
30	-1	25	-1	-1	-1	-1	29	-1	10	14	-1	20	-1	36	41	-1	49	1	8	28	7	-1	16	33	-1	-1	-1	-1	-1	-1	35	46	26	-1	-1	-1	-1	-1	17	38	37	39	19	4	21	-1	-1	42
35	-1	-1	12	-1	31	6	-1	40	-1	-1	27	26	-1	47	-1	-1	-1	-1	-1	-1	-1	-1	48	-1	30	45	38	14	-1	-1	20	-1	-1	-1	-1	-1	13	-1	-1	24	46	-1	11	33	-1	-1	-1	37
-1	-1	-1	-1	48	-1	47	38	-1	-1	-1	12	-1	-1	-1	39	25	3	-1	-1	-1	-1	14	8	-1	41	-1	-1	-1	-1	-1	-1	-1	-1	-1	43	26	-1	11	32	10	-1	-1	9	-1	34	-1	18	-1
-1	41	22	-1	40	-1	-1	-1	-1	47	43	-1	-1	30	16	11	17	14	23	-1	-1	34	-1	-1	10	42	-1	-1	-1	4	-1	5	-1	-1	-1	-1	21	19	-1	12	-1	-1	36	-1	20	-1	-1	-1	32
31	17	3	-1	13	41	11	-1	-1	1	48	39	29	-1	-1	16	36	-1	42	-1	-1	22	-1	-1	45	-1	27	19	-1	-1	-1	-1	12	-1	33	-1	-1	34	10	26	-1	6	23	-1	24	43	25	-1	-1
-1	42	32	-1	-1	12	37	-1	-1	-1	-1	-1	-1	36	-1	-1	-1	15	-1	41	-1	18	8	30	31	44	25	-1	-1	-1	-1	13	-1	-1	-1	39	-1	-1	-1	-1	-1	-1	-1	-1	-1	-1	-1	-1	-1
-1	-1	-1	47	24	-1	-1	21	32	11	5	-1	-1	-1	-1	-1	3	-1	-1	-1	-1	40	-1	-1	38	12	-1	-1	6	-1	-1	-1	-1	15	-1	-1	-1	-1	7	-1	-1	-1	46	-1	30	-1	33	-1	35
48	-1	-1	-1	-1	-1	7	9	-1	18	-1	13	38	24	11	-1	-1	-1	2	25	-1	-1	5	-1	1	-1	-1	-1	42	-1	-1	-1	45	-1	22	-1	-1	30	47	46	-1	17	34	26	44	-1	-1	-1	-1
-1	-1	-1	-1	-1	-1	40	-1	-1	-1	-1	16	-1	-1	-1	-1	-1	5	37	-1	1	13	-1	34	-1	10	41	-1	-1	17	-1	-1	-1	23	31	-1	29	36	-1	21	-1	-1	-1	2	-1	-1	32	47	45
9	46	-1	-1	-1	-1	-1	-1	30	-1	34	-1	15	22	23	-1	-1	-1	-1	-1	-1	28	47	37	-1	-1	-1	-1	25	-1	-1	10	-1	-1	14	-1	-1	-1	40	-1	45	-1	41	-1	18	42	-1	19	-1
-1	22	45	28	15	-1	16	-1	-1	44	-1	47	3	-1	26	-1	33	10	39	27	-1	-1	7	-1	29	-1	-1	-1	-1	-1	-1	-1	35	-1	-1	-1	8	-1	1	-1	-1	-1	-1	-1	-1	-1	-1	-1	4
-1	-1	13	-1	37	11	-1	-1	15	12	-1	-1	-1	9	27	-1	18	-1	-1	31	-1	-1	39	-1	3	38	-1	28	8	-1	-1	34	-1	40	-1	41	-1	-1	-1	-1	-1	-1	-1	-1	17	-1	-1	-1	-1
-1	36	-1	14	21	27	1	16	-1	17	20	35	-1	45	40	-1	-1	-1	-1	24	-1	-1	-1	-1	-1	13	-1	-1	39	18	-1	-1	43	5	-1	48	-1	47	-1	-1	-1	-1	31	37	-1	-1	44	-1	25
-1	-1	-1	-1	22	-1	15	49	-1	-1	-1	-1	48	-1	41	3	13	-1	-1	32	-1	-1	-1	21	-1	-1	-1	-1	-1	-1	44	6	16	31	7	-1	11	40	-1	38	30	9	24	-1	-1	20	47	5	-1
-1	28	31	-1	-1	-1	-1	-1	-1	-1	-1	41	27	-1	-1	35	-1	1	43	20	-1	14	-1	-1	-1	45	-1	-1	-1	-1	9	48	-1	25	-1	-1	-1	-1	-1	-1	12	-1	-1	32	-1	19	10	33	26
32	-1	42	-1	-1	-1	18	-1	6	-1	8	-1	-1	1	28	-1	-1	47	-1	37	7	-1	-1	-1	-1	25	-1	40	-1	-1	-1	19	4	17	-1	-1	16	29	-1	-1	44	27	13	14	48	38	15	-1	-1
43	9	-1	-1	-1	-1	-1	-1	47	3	-1	7	21	-1	-1	48	-1	44	4	-1	-1	-1	18	-1	-1	-1	29	-1	22	-1	-1	14	-1	13	-1	-1	-1	-1	24	6	-1	5	-1	-1	39	-1	-1	-1	41
20	47	-1	-1	41	-1	-1	-1	-1	-1	-1	-1	-1	-1	-1	5	-1	39	-1	49	-1	-1	-1	10	24	-1	-1	-1	3	-1	-1	-1	2	-1	42	-1	15	-1	18	37	-1	-1	7	-1	11	-1	21	43	-1
5	-1	-1	-1	-1	36	42	-1	-1	-1	-1	10	-1	48	-1	-1	23	-1	27	22	-1	-1	45	39	-1	1	2	-1	26	-1	-1	-1	37	-1	13	11	-1	-1	-1	-1	-1	-1	47	-1	28	-1	3	-1	14
-1	2	27	-1	11	48	39	1	31	-1	-1	-1	-1	12	-1	-1	16	32	-1	28	-1	-1	13	-1	46	7	26	-1	-1	3	35	21	-1	-1	17	10	25	-1	23	40	-1	-1	38	-1	-1	-1	-1	-1	-1
22	13	24	-1	-1	32	-1	-1	29	-1	-1	-1	43	3	-1	37	9	-1	-1	-1	2	41	-1	-1	-1	23	20	-1	-1	-1	-1	42	-1	44	-1	26	-1	-1	-1	-1	18	31	-1	36	-1	-1	-1	-1	-1
12	-1	-1	-1	45	49	43	-1	-1	-1	36	-1	-1	-1	-1	-1	21	-1	-1	-1	-1	27	10	47	-1	-1	-1	15	-1	-1	41	-1	14	-1	-1	37	-1	-1	4	16	-1	-1	-1	-1	-1	-1	-1	48	19
37	26	-1	6	47	-1	-1	-1	-1	19	-1	-1	-1	-1	25	10	-1	-1	-1	-1	-1	-1	-1	-1	-1	29	-1	24	-1	39	-1	38	-1	-1	-1	-1	-1	-1	-1	-1	-1	-1	44	-1	-1	16	-1	-1	-1
-1	-1	-1	-1	31	34	14	-1	2	-1	-1	-1	39	-1	-1	26	-1	33	-1	-1	42	-1	-1	-1	-1	-1	-1	-1	-1	-1	-1	1	-1	12	-1	8	-1	-1	-1	-1	48	-1	30	4	7	23	-1	-1	-1
-1	7	-1	-1	4	-1	-1	-1	9	-1	-1	-1	-1	-1	-1	44	19	-1	15	-1	17	-1	-1	-1	-1	-1	31	36	-1	-1	-1	-1	-1	18	2	-1	-1	45	29	-1	-1	12	-1	-1	46	-1	37	11	-1
-1	-1	39	36	-1	-1	3	-1	12	-1	-1	30	-1	4	-1	20	-1	18	22	-1	-1	-1	48	31	-1	37	28	-1	-1	-1	34	26	-1	-1	-1	9	-1	-1	8	-1	-1	33	-1	46	-1	-1	2	-1	38
11	-1	37	-1	-1	-1	-1	-1	-1	9	-1	-1	28	44	-1	43	32	2	25	45	-1	-1	46	-1	-1	14	-1	-1	49	24	-1	41	18	-1	-1	-1	12	-1	-1	-1	-1	30	-1	-1	-1	-1	-1	6	-1
-1	25	-1	-1	-1	30	35	3	-1	-1	19	-1	-1	-1	-1	46	37	-1	-1	-1	6	-1	40	-1	32	34	-1	-1	7	5	-1	23	-1	-1	-1	24	47	-1	13	-1	43	16	-1	45	22	-1	-1	-1	-1
-1	6	-1	-1	42	-1	-1	-1	-1	-1	-1	-1	10	2	-1	47	28	26	-1	36	44	39	-1	-1	-1	11	-1	33	-1	-1	16	-1	8	-1	21	-1	-1	-1	-1	22	-1	14	-1	12	29	-1	-1	-1	40
-1	-1	-1	-1	16	24	-1	-1	-1	-1	-1	-1	41	-1	-1	14	-1	-1	-1	-1	34	5	29	25	-1	-1	4	-1	-1	-1	17	-1	44	-1	-1	-1	6	7	-1	36	-1	-1	-1	-1	-1	31	-1	13	48
47	4	-1	48	-1	18	19	17	36	-1	7	-1	-1	6	42	-1	-1	24	21	23	-1	-1	-1	-1	12	-1	-1	-1	13	37	-1	-1	39	-1	-1	5	40	-1	-1	41	-1	-1	-1	34	14	-1	-1	-1	-1
-1	43	-1	-1	-1	-1	-1	-1	-1	-1	-1	-1	31	26	-1	-1	-1	-1	-1	-1	27	-1	49	6	-1	-1	47	-1	11	48	12	-1	22	-1	-1	38	-1	-1	25	-1	-1	42	-1	41	-1	18	19	-1	8
-1	-1	17	-1	-1	-1	49	-1	-1	26	12	18	47	-1	-1	25	-1	16	10	29	40	-1	-1	-1	15	21	1	-1	35	-1	48	4	-1	7	-1	-1	-1	43	22	30	-1	44	-1	-1	-1	28	14	-1	-1
-1	29	-1	-1	-1	-1	-1	-1	7	-1	-1	-1	-1	-1	-1	9	35	-1	14	-1	45	-1	-1	13	-1	46	-1	25	1	44	-1	-1	-1	-1	-1	18	-1	41	3	-1	-1	48	-1	-1	10	12	40	31	-1
18	-1	-1	27	10	-1	32	6	33	45	28	-1	-1	-1	48	-1	-1	-1	-1	-1	-1	-1	-1	-1	-1	-1	23	-1	16	15	39	-1	-1	-1	40	12	5	-1	-1	-1	42	-1	-1	-1	-1	44	30	-1	-1
21	-1	-1	44	46	40	48	-1	-1	22	-1	-1	-1	-1	-1	33	-1	13	34	17	-1	45	-1	3	-1	-1	-1	2	-1	10	-1	8	5	-1	-1	7	-1	-1	20	-1	-1	-1	42	18	19	-1	-1	-1	24
45	20	11	-1	-1	7	-1	-1	-1	-1	-1	8	-1	10	-1	-1	-1	23	-1	-1	36	29	-1	12	37	-1	-1	-1	-1	33	-1	-1	-1	-1	-1	-1	46	-1	28	-1	-1	38	25	-1	-1	-1	-1	-1	-1
-1	35	43	-1	-1	25	-1	-1	-1	-1	-1	1	11	-1	-1	-1	-1	-1	-1	5	-1	-1	-1	-1	4	-1	-1	-1	29	-1	13	-1	-1	46	20	21	-1	-1	37	-1	-1	10	45	-1	27	-1	-1	49	33
-1	1	47	-1	-1	-1	4	48	-1	-1	3	42	-1	-1	-1	15	-1	-1	-1	6	-1	-1	41	-1	-1	-1	-1	-1	-1	38	43	-1	34	-1	45	-1	-1	-1	-1	49	-1	26	-1	29	-1	-1	-1	23	-1
-1	23	48	37	-1	-1	-1	-1	34	-1	33	6	-1	-1	-1	-1	-1	-1	28	-1	-1	26	-1	-1	41	16	-1	-1	17	-1	-1	-1	-1	-1	-1	-1	2	-1	-1	-1	-1	-1	10	38	25	-1	-1	-1	21
13	-1	28	45	-1	-1	-1	-1	42	-1	24	-1	46	-1	-1	22	41	-1	-1	-1	16	-1	-1	38	-1	-1	21	18	37	30	-1	-1	23	-1	4	-1	39	9	-1	8	-1	1	-1	-1	-1	33	-1	34	44
-1	38	-1	10	-1	-1	-1	4	-1	-1	-1	-1	9	31	7	36	-1	-1	6	40	-1	-1	-1	29	23	39	-1	13	43	-1	-1	-1	19	-1	5	17	-1	-1	-1	-1	-1	-1	18	-1	8	27	-1	-1	-1
-1	39	49	-1	-1	-1	34	-1	-1	-1	32	-1	19	-1	37	-1	48	-1	-1	-1	-1	-1	1	-1	-1	35	-1	7	12	16	-1	24	13	38	18	-1	-1	-1	-1	-1	-1	36	43	-1	26	41	20	-1	-1
19	-1	-1	-1	-1	-1	-1	10	-1	-1	27	3	-1	-1	12	17	-1	-1	-1	18	26	25	-1	-1	34	6	8	-1	-1	14	-1	-1	-1	-1	-1	13	-1	-1	31	-1	-1	-1	-1	40	-1	-1	-1	45	-1
-1	8	12	-1	-1	-1	31	-1	-1	-1	-1	26	-1	23	-1	1	-1	-1	20	35	-1	24	-1	-1	42	27	37	-1	-1	-1	-1	-1	9	48	-1	19	-1	-1	-1	-1	29	41	-1	16	3	-1	-1	14	17
-1	24	-1	-1	36	35	26	-1	-1	25	-1	15	-1	47	-1	23	-1	42	-1	3	-1	9	-1	-1	30	-1	12	-1	-1	27	-1	-1	-1	21	-1	6	-1	10	16	-1	-1	-1	-1	-1	-1	4	-1	-1	39
49 
9 30 15 33
19 17 14 36
36 49 27 22
37 43 43 6
4 9 30 45
46 1 39 23
49 1 5 31
22 5 24 43
7 34 2 27
1 6 35 37
19 22 16 31
41 7 17 2
27 40 7 27
45 3 28 20
30 2 31 14
18 23 47 14
22 9 2 26
1 31 17 49
22 40 17 3
43 24 19 30
11 30 46 14
5 17 16 48
20 24 29 13
29 10 2 29
20 11 10 42
9 35 10 6
20 33 3 39
10 32 5 33
17 6 23 1
24 4 8 29
2 45 43 47
13 36 37 37
9 41 42 38
4 14 37 49
13 19 9 40
11 3 18 37
38 34 47 46
37 22 3 15
25 15 3 25
26 48 49 3
49 11 19 29
41 22 12 8
47 18 43 23
4 7 41 9
33 7 46 9
35 6 12 20
2 33 4 26
1 39 13 33
16 45 18 39
